; 
(set-info :status unknown)
(declare-fun standard_metadata.ingress_port () (_ BitVec 9))
(declare-fun standard_metadata.egress_spec () (_ BitVec 9))
(declare-fun h1.f1 () (_ BitVec 8))
(assert
 (let (($x90 (= standard_metadata.ingress_port (_ bv1 9))))
 (or (or false (= standard_metadata.ingress_port (_ bv0 9))) $x90)))
(assert
 (let (($x92 (= standard_metadata.egress_spec (_ bv1 9))))
 (let (($x76 (= standard_metadata.egress_spec (_ bv511 9))))
 (or $x76 (or (or false (= standard_metadata.egress_spec (_ bv0 9))) $x92)))))
(assert
 (let (($x41 (and true (not (= h1.f1 (concat (_ bv0 7) (_ bv0 1)))))))
 (let (($x76 (= standard_metadata.egress_spec (_ bv511 9))))
 (let (($x131 (not $x76)))
 (and (and $x131 $x41) (= (- 1) (- 1)))))))
(check-sat)

; 
(set-info :status unknown)
(declare-fun standard_metadata.ingress_port () (_ BitVec 9))
(declare-fun standard_metadata.egress_spec () (_ BitVec 9))
(declare-fun h1.f2 () (_ BitVec 8))
(assert
 (let (($x90 (= standard_metadata.ingress_port (_ bv1 9))))
 (or (or false (= standard_metadata.ingress_port (_ bv0 9))) $x90)))
(assert
 (let (($x92 (= standard_metadata.egress_spec (_ bv1 9))))
 (let (($x76 (= standard_metadata.egress_spec (_ bv511 9))))
 (or $x76 (or (or false (= standard_metadata.egress_spec (_ bv0 9))) $x92)))))
(assert
 (let (($x46 (and true (not (= h1.f2 (concat (_ bv0 7) (_ bv0 1)))))))
 (let (($x76 (= standard_metadata.egress_spec (_ bv511 9))))
 (let (($x131 (not $x76)))
 (and (and $x131 $x46) (= (- 1) (- 1)))))))
(check-sat)

; 
(set-info :status unknown)
(declare-fun standard_metadata.ingress_port () (_ BitVec 9))
(declare-fun standard_metadata.egress_spec () (_ BitVec 9))
(declare-fun h1.f3 () (_ BitVec 8))
(assert
 (let (($x90 (= standard_metadata.ingress_port (_ bv1 9))))
 (or (or false (= standard_metadata.ingress_port (_ bv0 9))) $x90)))
(assert
 (let (($x92 (= standard_metadata.egress_spec (_ bv1 9))))
 (let (($x76 (= standard_metadata.egress_spec (_ bv511 9))))
 (or $x76 (or (or false (= standard_metadata.egress_spec (_ bv0 9))) $x92)))))
(assert
 (let (($x50 (and true (not (= h1.f3 (concat (_ bv0 7) (_ bv0 1)))))))
 (let (($x76 (= standard_metadata.egress_spec (_ bv511 9))))
 (let (($x131 (not $x76)))
 (and (and $x131 $x50) (= (- 1) (- 1)))))))
(check-sat)

; 
(set-info :status unknown)
(declare-fun standard_metadata.ingress_port () (_ BitVec 9))
(declare-fun standard_metadata.egress_spec () (_ BitVec 9))
(declare-fun h1.f4 () (_ BitVec 8))
(assert
 (let (($x90 (= standard_metadata.ingress_port (_ bv1 9))))
 (or (or false (= standard_metadata.ingress_port (_ bv0 9))) $x90)))
(assert
 (let (($x92 (= standard_metadata.egress_spec (_ bv1 9))))
 (let (($x76 (= standard_metadata.egress_spec (_ bv511 9))))
 (or $x76 (or (or false (= standard_metadata.egress_spec (_ bv0 9))) $x92)))))
(assert
 (let (($x54 (and true (not (= h1.f4 (concat (_ bv0 7) (_ bv0 1)))))))
 (let (($x76 (= standard_metadata.egress_spec (_ bv511 9))))
 (let (($x131 (not $x76)))
 (and (and $x131 $x54) (= (- 1) (- 1)))))))
(check-sat)

; 
(set-info :status unknown)
(declare-fun standard_metadata.ingress_port () (_ BitVec 9))
(declare-fun standard_metadata.egress_spec () (_ BitVec 9))
(declare-fun h1.f5 () (_ BitVec 8))
(assert
 (let (($x90 (= standard_metadata.ingress_port (_ bv1 9))))
 (or (or false (= standard_metadata.ingress_port (_ bv0 9))) $x90)))
(assert
 (let (($x92 (= standard_metadata.egress_spec (_ bv1 9))))
 (let (($x76 (= standard_metadata.egress_spec (_ bv511 9))))
 (or $x76 (or (or false (= standard_metadata.egress_spec (_ bv0 9))) $x92)))))
(assert
 (let (($x58 (and true (not (= h1.f5 (concat (_ bv0 7) (_ bv0 1)))))))
 (let (($x76 (= standard_metadata.egress_spec (_ bv511 9))))
 (let (($x131 (not $x76)))
 (and (and $x131 $x58) (= (- 1) (- 1)))))))
(check-sat)

; 
(set-info :status unknown)
(declare-fun standard_metadata.ingress_port () (_ BitVec 9))
(declare-fun standard_metadata.egress_spec () (_ BitVec 9))
(declare-fun h1.f6 () (_ BitVec 8))
(assert
 (let (($x90 (= standard_metadata.ingress_port (_ bv1 9))))
 (or (or false (= standard_metadata.ingress_port (_ bv0 9))) $x90)))
(assert
 (let (($x92 (= standard_metadata.egress_spec (_ bv1 9))))
 (let (($x76 (= standard_metadata.egress_spec (_ bv511 9))))
 (or $x76 (or (or false (= standard_metadata.egress_spec (_ bv0 9))) $x92)))))
(assert
 (let (($x62 (and true (not (= h1.f6 (concat (_ bv0 7) (_ bv0 1)))))))
 (let (($x76 (= standard_metadata.egress_spec (_ bv511 9))))
 (let (($x131 (not $x76)))
 (and (and $x131 $x62) (= (- 1) (- 1)))))))
(check-sat)

; 
(set-info :status unknown)
(declare-fun standard_metadata.ingress_port () (_ BitVec 9))
(declare-fun standard_metadata.egress_spec () (_ BitVec 9))
(declare-fun h1.f7 () (_ BitVec 8))
(assert
 (let (($x90 (= standard_metadata.ingress_port (_ bv1 9))))
 (or (or false (= standard_metadata.ingress_port (_ bv0 9))) $x90)))
(assert
 (let (($x92 (= standard_metadata.egress_spec (_ bv1 9))))
 (let (($x76 (= standard_metadata.egress_spec (_ bv511 9))))
 (or $x76 (or (or false (= standard_metadata.egress_spec (_ bv0 9))) $x92)))))
(assert
 (let (($x66 (and true (not (= h1.f7 (concat (_ bv0 7) (_ bv0 1)))))))
 (let (($x76 (= standard_metadata.egress_spec (_ bv511 9))))
 (let (($x131 (not $x76)))
 (and (and $x131 $x66) (= (- 1) (- 1)))))))
(check-sat)

; 
(set-info :status unknown)
(declare-fun standard_metadata.ingress_port () (_ BitVec 9))
(declare-fun standard_metadata.egress_spec () (_ BitVec 9))
(declare-fun h1.f8 () (_ BitVec 8))
(assert
 (let (($x90 (= standard_metadata.ingress_port (_ bv1 9))))
 (or (or false (= standard_metadata.ingress_port (_ bv0 9))) $x90)))
(assert
 (let (($x92 (= standard_metadata.egress_spec (_ bv1 9))))
 (let (($x76 (= standard_metadata.egress_spec (_ bv511 9))))
 (or $x76 (or (or false (= standard_metadata.egress_spec (_ bv0 9))) $x92)))))
(assert
 (let (($x70 (and true (not (= h1.f8 (concat (_ bv0 7) (_ bv0 1)))))))
 (let (($x76 (= standard_metadata.egress_spec (_ bv511 9))))
 (let (($x131 (not $x76)))
 (and (and $x131 $x70) (= (- 1) (- 1)))))))
(check-sat)

; 
(set-info :status unknown)
(declare-fun standard_metadata.ingress_port () (_ BitVec 9))
(declare-fun standard_metadata.egress_spec () (_ BitVec 9))
(declare-fun h1.f1 () (_ BitVec 8))
(assert
 (let (($x90 (= standard_metadata.ingress_port (_ bv1 9))))
 (or (or false (= standard_metadata.ingress_port (_ bv0 9))) $x90)))
(assert
 (let (($x92 (= standard_metadata.egress_spec (_ bv1 9))))
 (let (($x76 (= standard_metadata.egress_spec (_ bv511 9))))
 (or $x76 (or (or false (= standard_metadata.egress_spec (_ bv0 9))) $x92)))))
(assert
 (let ((?x37 (concat (_ bv0 7) (_ bv0 1))))
 (let (($x38 (= h1.f1 ?x37)))
 (let (($x40 (and true $x38)))
 (let (($x76 (= standard_metadata.egress_spec (_ bv511 9))))
 (let (($x131 (not $x76)))
 (and (and $x131 $x40) (= (- 1) (- 1)))))))))
(check-sat)

; 
(set-info :status unknown)
(declare-fun standard_metadata.ingress_port () (_ BitVec 9))
(declare-fun standard_metadata.egress_spec () (_ BitVec 9))
(declare-fun h1.f2 () (_ BitVec 8))
(assert
 (let (($x90 (= standard_metadata.ingress_port (_ bv1 9))))
 (or (or false (= standard_metadata.ingress_port (_ bv0 9))) $x90)))
(assert
 (let (($x92 (= standard_metadata.egress_spec (_ bv1 9))))
 (let (($x76 (= standard_metadata.egress_spec (_ bv511 9))))
 (or $x76 (or (or false (= standard_metadata.egress_spec (_ bv0 9))) $x92)))))
(assert
 (let ((?x37 (concat (_ bv0 7) (_ bv0 1))))
 (let (($x43 (= h1.f2 ?x37)))
 (let (($x45 (and true $x43)))
 (let (($x76 (= standard_metadata.egress_spec (_ bv511 9))))
 (let (($x131 (not $x76)))
 (and (and $x131 $x45) (= (- 1) (- 1)))))))))
(check-sat)

; 
(set-info :status unknown)
(declare-fun standard_metadata.ingress_port () (_ BitVec 9))
(declare-fun standard_metadata.egress_spec () (_ BitVec 9))
(declare-fun h1.f3 () (_ BitVec 8))
(assert
 (let (($x90 (= standard_metadata.ingress_port (_ bv1 9))))
 (or (or false (= standard_metadata.ingress_port (_ bv0 9))) $x90)))
(assert
 (let (($x92 (= standard_metadata.egress_spec (_ bv1 9))))
 (let (($x76 (= standard_metadata.egress_spec (_ bv511 9))))
 (or $x76 (or (or false (= standard_metadata.egress_spec (_ bv0 9))) $x92)))))
(assert
 (let ((?x37 (concat (_ bv0 7) (_ bv0 1))))
 (let (($x47 (= h1.f3 ?x37)))
 (let (($x49 (and true $x47)))
 (let (($x76 (= standard_metadata.egress_spec (_ bv511 9))))
 (let (($x131 (not $x76)))
 (and (and $x131 $x49) (= (- 1) (- 1)))))))))
(check-sat)

; 
(set-info :status unknown)
(declare-fun standard_metadata.ingress_port () (_ BitVec 9))
(declare-fun standard_metadata.egress_spec () (_ BitVec 9))
(declare-fun h1.f4 () (_ BitVec 8))
(assert
 (let (($x90 (= standard_metadata.ingress_port (_ bv1 9))))
 (or (or false (= standard_metadata.ingress_port (_ bv0 9))) $x90)))
(assert
 (let (($x92 (= standard_metadata.egress_spec (_ bv1 9))))
 (let (($x76 (= standard_metadata.egress_spec (_ bv511 9))))
 (or $x76 (or (or false (= standard_metadata.egress_spec (_ bv0 9))) $x92)))))
(assert
 (let ((?x37 (concat (_ bv0 7) (_ bv0 1))))
 (let (($x51 (= h1.f4 ?x37)))
 (let (($x53 (and true $x51)))
 (let (($x76 (= standard_metadata.egress_spec (_ bv511 9))))
 (let (($x131 (not $x76)))
 (and (and $x131 $x53) (= (- 1) (- 1)))))))))
(check-sat)

; 
(set-info :status unknown)
(declare-fun standard_metadata.ingress_port () (_ BitVec 9))
(declare-fun standard_metadata.egress_spec () (_ BitVec 9))
(declare-fun h1.f5 () (_ BitVec 8))
(assert
 (let (($x90 (= standard_metadata.ingress_port (_ bv1 9))))
 (or (or false (= standard_metadata.ingress_port (_ bv0 9))) $x90)))
(assert
 (let (($x92 (= standard_metadata.egress_spec (_ bv1 9))))
 (let (($x76 (= standard_metadata.egress_spec (_ bv511 9))))
 (or $x76 (or (or false (= standard_metadata.egress_spec (_ bv0 9))) $x92)))))
(assert
 (let ((?x37 (concat (_ bv0 7) (_ bv0 1))))
 (let (($x55 (= h1.f5 ?x37)))
 (let (($x57 (and true $x55)))
 (let (($x76 (= standard_metadata.egress_spec (_ bv511 9))))
 (let (($x131 (not $x76)))
 (and (and $x131 $x57) (= (- 1) (- 1)))))))))
(check-sat)

; 
(set-info :status unknown)
(declare-fun standard_metadata.ingress_port () (_ BitVec 9))
(declare-fun standard_metadata.egress_spec () (_ BitVec 9))
(declare-fun h1.f6 () (_ BitVec 8))
(assert
 (let (($x90 (= standard_metadata.ingress_port (_ bv1 9))))
 (or (or false (= standard_metadata.ingress_port (_ bv0 9))) $x90)))
(assert
 (let (($x92 (= standard_metadata.egress_spec (_ bv1 9))))
 (let (($x76 (= standard_metadata.egress_spec (_ bv511 9))))
 (or $x76 (or (or false (= standard_metadata.egress_spec (_ bv0 9))) $x92)))))
(assert
 (let ((?x37 (concat (_ bv0 7) (_ bv0 1))))
 (let (($x59 (= h1.f6 ?x37)))
 (let (($x61 (and true $x59)))
 (let (($x76 (= standard_metadata.egress_spec (_ bv511 9))))
 (let (($x131 (not $x76)))
 (and (and $x131 $x61) (= (- 1) (- 1)))))))))
(check-sat)

; 
(set-info :status unknown)
(declare-fun standard_metadata.ingress_port () (_ BitVec 9))
(declare-fun standard_metadata.egress_spec () (_ BitVec 9))
(declare-fun h1.f7 () (_ BitVec 8))
(assert
 (let (($x90 (= standard_metadata.ingress_port (_ bv1 9))))
 (or (or false (= standard_metadata.ingress_port (_ bv0 9))) $x90)))
(assert
 (let (($x92 (= standard_metadata.egress_spec (_ bv1 9))))
 (let (($x76 (= standard_metadata.egress_spec (_ bv511 9))))
 (or $x76 (or (or false (= standard_metadata.egress_spec (_ bv0 9))) $x92)))))
(assert
 (let ((?x37 (concat (_ bv0 7) (_ bv0 1))))
 (let (($x63 (= h1.f7 ?x37)))
 (let (($x65 (and true $x63)))
 (let (($x76 (= standard_metadata.egress_spec (_ bv511 9))))
 (let (($x131 (not $x76)))
 (and (and $x131 $x65) (= (- 1) (- 1)))))))))
(check-sat)

; 
(set-info :status unknown)
(declare-fun standard_metadata.ingress_port () (_ BitVec 9))
(declare-fun standard_metadata.egress_spec () (_ BitVec 9))
(declare-fun h1.f8 () (_ BitVec 8))
(assert
 (let (($x90 (= standard_metadata.ingress_port (_ bv1 9))))
 (or (or false (= standard_metadata.ingress_port (_ bv0 9))) $x90)))
(assert
 (let (($x92 (= standard_metadata.egress_spec (_ bv1 9))))
 (let (($x76 (= standard_metadata.egress_spec (_ bv511 9))))
 (or $x76 (or (or false (= standard_metadata.egress_spec (_ bv0 9))) $x92)))))
(assert
 (let ((?x37 (concat (_ bv0 7) (_ bv0 1))))
 (let (($x67 (= h1.f8 ?x37)))
 (let (($x69 (and true $x67)))
 (let (($x76 (= standard_metadata.egress_spec (_ bv511 9))))
 (let (($x131 (not $x76)))
 (and (and $x131 $x69) (= (- 1) (- 1)))))))))
(check-sat)

; 
(set-info :status unknown)
(declare-fun standard_metadata.ingress_port () (_ BitVec 9))
(declare-fun standard_metadata.egress_spec () (_ BitVec 9))
(declare-fun h1.fr () (_ BitVec 8))
(assert
 (let (($x90 (= standard_metadata.ingress_port (_ bv1 9))))
 (or (or false (= standard_metadata.ingress_port (_ bv0 9))) $x90)))
(assert
 (let (($x92 (= standard_metadata.egress_spec (_ bv1 9))))
 (let (($x76 (= standard_metadata.egress_spec (_ bv511 9))))
 (or $x76 (or (or false (= standard_metadata.egress_spec (_ bv0 9))) $x92)))))
(assert
 (let (($x74 (and true (and true (= h1.fr (_ bv255 8))))))
 (let ((?x78 (ite $x74 0 (- 1))))
 (and (and (not (= standard_metadata.egress_spec (_ bv511 9))) true) (= ?x78 (- 1))))))
(check-sat)

; 
(set-info :status unknown)
(declare-fun standard_metadata.ingress_port () (_ BitVec 9))
(declare-fun standard_metadata.egress_spec () (_ BitVec 9))
(declare-fun h1.fr () (_ BitVec 8))
(assert
 (let (($x90 (= standard_metadata.ingress_port (_ bv1 9))))
 (or (or false (= standard_metadata.ingress_port (_ bv0 9))) $x90)))
(assert
 (let (($x92 (= standard_metadata.egress_spec (_ bv1 9))))
 (let (($x76 (= standard_metadata.egress_spec (_ bv511 9))))
 (or $x76 (or (or false (= standard_metadata.egress_spec (_ bv0 9))) $x92)))))
(assert
 (let (($x74 (and true (and true (= h1.fr (_ bv255 8))))))
 (let ((?x78 (ite $x74 0 (- 1))))
 (and (and (not (= standard_metadata.egress_spec (_ bv511 9))) true) (= ?x78 0)))))
(check-sat)
